
Gurobi 11.0.3 (linux64) logging started Mon Dec 15 16:10:13 2025

Set parameter LogFile to value "./log/train/IS_900_5/IS_0.lp.log"
Set parameter TimeLimit to value 3600
Gurobi Optimizer version 11.0.3 build v11.0.3rc0 (linux64 - "Ubuntu 22.04.5 LTS")

CPU model: AMD Ryzen 9 9900X 12-Core Processor, instruction set [SSE2|AVX|AVX2|AVX512]
Thread count: 12 physical cores, 24 logical processors, using up to 24 threads

Optimize a model with 4658 rows, 900 columns and 9110 nonzeros
Model fingerprint: 0x14d9db6f
Variable types: 0 continuous, 900 integer (900 binary)
Coefficient statistics:
  Matrix range     [1e+00, 1e+00]
  Objective range  [1e+00, 1e+00]
  Bounds range     [1e+00, 1e+00]
  RHS range        [1e+00, 1e+00]
Found heuristic solution: objective 208.0000000
Presolve removed 1014 rows and 0 columns
Presolve time: 0.01s
Presolved: 3644 rows, 900 columns, 8021 nonzeros
Variable types: 0 continuous, 900 integer (900 binary)

Root relaxation: objective 4.116667e+02, 1621 iterations, 0.04 seconds (0.08 work units)

    Nodes    |    Current Node    |     Objective Bounds      |     Work
 Expl Unexpl |  Obj  Depth IntInf | Incumbent    BestBd   Gap | It/Node Time

     0     0  411.66667    0  794  208.00000  411.66667  97.9%     -    0s
H    0     0                     338.0000000  411.66667  21.8%     -    0s
H    0     0                     342.0000000  411.66667  20.4%     -    0s
H    0     0                     356.0000000  404.71797  13.7%     -    0s
H    0     0                     368.0000000  404.71797  10.0%     -    0s
H    0     0                     372.0000000  404.71797  8.80%     -    0s
     0     0  404.70919    0  876  372.00000  404.70919  8.79%     -    0s
     0     0  404.67669    0  877  372.00000  404.67669  8.78%     -    0s
     0     0  404.67669    0  877  372.00000  404.67669  8.78%     -    0s
H    0     0                     373.0000000  399.41123  7.08%     -    0s
     0     0  399.41123    0  880  373.00000  399.41123  7.08%     -    0s
     0     0  399.09762    0  880  373.00000  399.09762  7.00%     -    0s
     0     0  399.04556    0  879  373.00000  399.04556  6.98%     -    0s
     0     0  399.03798    0  880  373.00000  399.03798  6.98%     -    0s
     0     0  399.03792    0  880  373.00000  399.03792  6.98%     -    0s
     0     0  396.48734    0  878  373.00000  396.48734  6.30%     -    0s
     0     0  396.33333    0  878  373.00000  396.33333  6.26%     -    0s
     0     0  396.30253    0  878  373.00000  396.30253  6.25%     -    0s
     0     0  396.29737    0  877  373.00000  396.29737  6.25%     -    0s
     0     0  396.29292    0  877  373.00000  396.29292  6.24%     -    0s
     0     0  396.29277    0  877  373.00000  396.29277  6.24%     -    0s
     0     0  394.66611    0  880  373.00000  394.66611  5.81%     -    0s
     0     0  394.46122    0  884  373.00000  394.46122  5.75%     -    0s
     0     0  394.42704    0  884  373.00000  394.42704  5.74%     -    0s
     0     0  394.42399    0  885  373.00000  394.42399  5.74%     -    0s
     0     0  393.92322    0  876  373.00000  393.92322  5.61%     -    0s
     0     0  393.86058    0  881  373.00000  393.86058  5.59%     -    0s
     0     0  393.84995    0  880  373.00000  393.84995  5.59%     -    0s
     0     0  393.84692    0  884  373.00000  393.84692  5.59%     -    0s
     0     0  393.46613    0  880  373.00000  393.46613  5.49%     -    1s
     0     0  393.42053    0  880  373.00000  393.42053  5.47%     -    1s
     0     0  393.41896    0  880  373.00000  393.41896  5.47%     -    1s
     0     0  393.18861    0  883  373.00000  393.18861  5.41%     -    1s
     0     0  393.12268    0  882  373.00000  393.12268  5.39%     -    1s
     0     0  393.11918    0  885  373.00000  393.11918  5.39%     -    1s
     0     0  392.68933    0  887  373.00000  392.68933  5.28%     -    1s
     0     0  392.61112    0  889  373.00000  392.61112  5.26%     -    1s
     0     0  392.59299    0  886  373.00000  392.59299  5.25%     -    1s
     0     0  392.58927    0  887  373.00000  392.58927  5.25%     -    1s
     0     0  392.30588    0  887  373.00000  392.30588  5.18%     -    1s
     0     0  392.26971    0  883  373.00000  392.26971  5.17%     -    1s
     0     0  392.26195    0  884  373.00000  392.26195  5.16%     -    1s
     0     0  392.25931    0  885  373.00000  392.25931  5.16%     -    1s
     0     0  391.95969    0  885  373.00000  391.95969  5.08%     -    1s
     0     0  391.90254    0  887  373.00000  391.90254  5.07%     -    1s
     0     0  391.89248    0  887  373.00000  391.89248  5.07%     -    1s
     0     0  391.89047    0  887  373.00000  391.89047  5.06%     -    1s
     0     0  391.66987    0  886  373.00000  391.66987  5.01%     -    1s
     0     0  391.66088    0  886  373.00000  391.66088  5.00%     -    1s
     0     0  391.65706    0  886  373.00000  391.65706  5.00%     -    1s
     0     0  391.59754    0  886  373.00000  391.59754  4.99%     -    1s
     0     0  391.59754    0  886  373.00000  391.59754  4.99%     -    1s
H    0     0                     375.0000000  391.59754  4.43%     -    1s
     0     2  391.59754    0  886  375.00000  391.59754  4.43%     -    1s
H   81    83                     377.0000000  390.95043  3.70%   728    3s
   435   230  378.20539   26  754  377.00000  390.95043  3.70%   464    6s
  1086   597  378.92075   12  807  377.00000  389.22989  3.24%   418   10s
  2495  1314  383.14669   22  886  377.00000  388.48956  3.05%   368   16s
  2504  1320  380.02165   29  882  377.00000  388.48956  3.05%   367   20s
  2512  1325  379.33847   24  883  377.00000  388.48956  3.05%   365   25s
  2740  1509  386.94752   18  865  377.00000  388.34349  3.01%   404   30s
  3569  1839  386.81549   29  862  377.00000  388.07613  2.94%   440   35s
  5787  2469  383.77157   46  841  377.00000  388.07613  2.94%   430   40s
  9987  4613  379.03511   18  817  377.00000  384.23939  1.92%   369   45s
 13171  5883  378.79566   31  803  377.00000  383.59018  1.75%   353   50s
 16842  7473  380.70775   36  835  377.00000  382.89689  1.56%   347   55s
 21407  8703  378.48998   29  796  377.00000  382.24452  1.39%   344   60s
 26422  9448  378.49984   36  779  377.00000  381.64676  1.23%   340   65s
 30690  9544     cutoff   39       377.00000  381.07673  1.08%   338   70s
 35488  8173     cutoff   56       377.00000  380.30047  0.88%   338   75s
 42308  3106     cutoff   35       377.00000  379.17907  0.58%   324   81s

Cutting planes:
  Gomory: 4
  Clique: 1
  MIR: 2
  Flow cover: 1
  Zero half: 391
  RLT: 216
  BQP: 48

Explored 47661 nodes (14306164 simplex iterations) in 82.43 seconds (215.63 work units)
Thread count was 24 (of 24 available processors)

Solution count 9: 377 375 373 ... 208

Optimal solution found (tolerance 1.00e-04)
Best objective 3.770000000000e+02, best bound 3.770000000000e+02, gap 0.0000%

User-callback calls 104028, time in user-callback 0.06 sec
